p edge 20 102 5
v 1 5
v 4 6 9 11 13
v 5 2 3 8 12 17
v 5 1 14 16 19 20
v 5 4 7 10 15 18
e 1 2
e 1 4
e 1 5
e 1 6
e 1 8
e 1 11
e 1 12
e 1 15
e 1 16
e 1 18
e 1 19
e 2 4
e 2 7
e 2 8
e 2 9
e 2 13
e 2 14
e 2 16
e 2 17
e 2 18
e 2 19
e 3 5
e 3 6
e 3 7
e 3 10
e 3 15
e 3 16
e 3 17
e 3 19
e 3 20
e 4 6
e 4 9
e 4 11
e 4 12
e 4 14
e 4 15
e 4 17
e 4 18
e 5 6
e 5 9
e 5 10
e 5 12
e 5 13
e 5 17
e 5 18
e 6 8
e 6 9
e 6 12
e 6 14
e 6 15
e 6 16
e 6 18
e 6 19
e 7 10
e 7 13
e 7 15
e 7 17
e 8 13
e 8 14
e 8 15
e 8 20
e 9 10
e 9 11
e 9 12
e 9 14
e 9 15
e 9 17
e 9 18
e 9 19
e 10 11
e 10 12
e 10 17
e 10 18
e 10 19
e 10 20
e 11 13
e 11 16
e 12 13
e 12 14
e 12 15
e 12 16
e 12 18
e 12 19
e 12 20
e 13 14
e 13 15
e 13 18
e 14 15
e 14 16
e 14 17
e 15 16
e 15 17
e 15 18
e 16 17
e 16 18
e 16 19
e 16 20
e 17 18
e 17 20
e 18 19
e 18 20
e 19 20
